69
9
0 9 10 12 13 16 18 19 20 22 23 24 25 26 27 29 30 31 32 34 36 37 40 42 43 44 46 48 52 55 57 59 60 61 64
1 9 10 12 18 19 23 31 33 34 37 38 40 42 44 45 46 47 48 51 55 56 57 59 60 61 63 64 65
2 10 12 13 14 15 17 21 22 23 24 26 30 32 33 34 35 36 37 39 40 41 44 46 49 55 58 59 61 64 65 66
3 9 13 18 19 22 24 26 27 31 34 35 36 38 40 42 48 49 52 55 56 61 62 64 67
4 10 11 12 13 14 16 17 21 22 23 26 30 32 41 44 49 52 58 59 60 65
5 13 16 18 19 20 22 24 31 32 37 40 41 46 48 52 56 58 59 60 61 65 68
6 10 12 18 20 23 24 26 36 37 38 41 47 48 50 51 53 60 63 65 66
7 15 18 19 20 23 26 28 32 35 49 53 54 66 68
8 13 16 33 43 44 55 64
